14° run output:
{
    "Function": "kroA400.tsp",
    "Problem dimension": [
        256,
        352,
        102,
        114,
        323,
        382,
        283,
        306,
        11,
        141,
        72,
        179,
        347,
        309,
        133,
        223,
        288,
        276,
        229,
        57,
        199,
        271,
        216,
        184,
        93,
        329,
        274,
        338,
        316,
        73,
        115,
        291,
        21,
        104,
        61,
        272,
        68,
        312,
        108,
        212,
        164,
        258,
        295,
        317,
        190,
        53,
        391,
        8,
        155,
        26,
        126,
        7,
        358,
        90,
        349,
        22,
        310,
        30,
        370,
        266,
        1,
        118,
        105,
        56,
        263,
        335,
        375,
        174,
        148,
        169,
        25,
        286,
        245,
        146,
        54,
        218,
        262,
        121,
        280,
        65,
        222,
        334,
        211,
        307,
        37,
        301,
        24,
        180,
        267,
        237,
        341,
        344,
        265,
        85,
        318,
        269,
        150,
        28,
        252,
        173,
        183,
        6,
        300,
        9,
        200,
        201,
        273,
        198,
        144,
        0,
        327,
        51,
        332,
        366,
        241,
        95,
        355,
        109,
        364,
        96,
        196,
        103,
        396,
        47,
        147,
        208,
        185,
        74,
        172,
        153,
        219,
        194,
        98,
        384,
        215,
        58,
        311,
        52,
        31,
        50,
        83,
        289,
        59,
        369,
        357,
        127,
        113,
        140,
        4,
        243,
        86,
        372,
        398,
        367,
        45,
        123,
        166,
        389,
        89,
        112,
        354,
        70,
        214,
        49,
        328,
        88,
        285,
        149,
        75,
        240,
        210,
        337,
        217,
        76,
        264,
        120,
        15,
        275,
        287,
        23,
        331,
        84,
        46,
        255,
        362,
        235,
        278,
        277,
        181,
        299,
        5,
        204,
        233,
        304,
        151,
        87,
        170,
        386,
        379,
        35,
        191,
        246,
        399,
        171,
        292,
        77,
        162,
        187,
        221,
        371,
        342,
        29,
        41,
        122,
        81,
        244,
        253,
        290,
        167,
        129,
        142,
        116,
        242,
        268,
        63,
        175,
        145,
        302,
        381,
        17,
        131,
        176,
        238,
        336,
        326,
        94,
        62,
        60,
        356,
        177,
        27,
        260,
        250,
        20,
        395,
        224,
        168,
        163,
        227,
        182,
        192,
        130,
        101,
        44,
        319,
        320,
        159,
        134,
        158,
        315,
        387,
        188,
        284,
        220,
        232,
        333,
        82,
        257,
        203,
        135,
        279,
        12,
        66,
        231,
        308,
        178,
        322,
        32,
        390,
        106,
        378,
        247,
        345,
        281,
        270,
        259,
        117,
        206,
        377,
        303,
        380,
        156,
        397,
        383,
        225,
        3,
        376,
        209,
        207,
        193,
        361,
        137,
        189,
        373,
        36,
        107,
        99,
        213,
        92,
        80,
        139,
        13,
        234,
        254,
        343,
        351,
        324,
        350,
        297,
        195,
        359,
        152,
        330,
        388,
        67,
        2,
        296,
        34,
        40,
        251,
        165,
        325,
        33,
        97,
        38,
        293,
        160,
        313,
        339,
        374,
        392,
        143,
        71,
        294,
        261,
        100,
        230,
        248,
        353,
        125,
        157,
        239,
        360,
        111,
        385,
        39,
        110,
        119,
        78,
        321,
        394,
        314,
        228,
        55,
        124,
        363,
        393,
        197,
        19,
        42,
        186,
        346,
        202,
        18,
        91,
        161,
        128,
        138,
        136,
        236,
        64,
        348,
        226,
        365,
        16,
        249,
        79,
        154,
        205,
        298,
        48,
        340,
        10,
        43,
        282,
        69,
        368,
        132,
        14,
        305
    ],
    "Global Optimum": 0,
    "Algorithm": "Genetic algorithm",
    "Parameters": {
        "population": 30,
        "offspring": 30,
        "mutation probability": 0.0025,
        "crossover probability": 0.9
    },
    "Fitness": 417135,
    "Solution": [
        256,
        352,
        102,
        114,
        323,
        382,
        283,
        306,
        11,
        141,
        72,
        179,
        347,
        309,
        133,
        223,
        288,
        276,
        229,
        57,
        199,
        271,
        216,
        184,
        93,
        329,
        274,
        338,
        316,
        73,
        115,
        291,
        21,
        104,
        61,
        272,
        68,
        312,
        108,
        212,
        164,
        258,
        295,
        317,
        190,
        53,
        391,
        8,
        155,
        26,
        126,
        7,
        358,
        90,
        349,
        22,
        310,
        30,
        370,
        266,
        1,
        118,
        105,
        56,
        263,
        335,
        375,
        174,
        148,
        169,
        25,
        286,
        245,
        146,
        54,
        218,
        262,
        121,
        280,
        65,
        222,
        334,
        211,
        307,
        37,
        301,
        24,
        180,
        267,
        237,
        341,
        344,
        265,
        85,
        318,
        269,
        150,
        28,
        252,
        173,
        183,
        6,
        300,
        9,
        200,
        201,
        273,
        198,
        144,
        0,
        327,
        51,
        332,
        366,
        241,
        95,
        355,
        109,
        364,
        96,
        196,
        103,
        396,
        47,
        147,
        208,
        185,
        74,
        172,
        153,
        219,
        194,
        98,
        384,
        215,
        58,
        311,
        52,
        31,
        50,
        83,
        289,
        59,
        369,
        357,
        127,
        113,
        140,
        4,
        243,
        86,
        372,
        398,
        367,
        45,
        123,
        166,
        389,
        89,
        112,
        354,
        70,
        214,
        49,
        328,
        88,
        285,
        149,
        75,
        240,
        210,
        337,
        217,
        76,
        264,
        120,
        15,
        275,
        287,
        23,
        331,
        84,
        46,
        255,
        362,
        235,
        278,
        277,
        181,
        299,
        5,
        204,
        233,
        304,
        151,
        87,
        170,
        386,
        379,
        35,
        191,
        246,
        399,
        171,
        292,
        77,
        162,
        187,
        221,
        371,
        342,
        29,
        41,
        122,
        81,
        244,
        253,
        290,
        167,
        129,
        142,
        116,
        242,
        268,
        63,
        175,
        145,
        302,
        381,
        17,
        131,
        176,
        238,
        336,
        326,
        94,
        62,
        60,
        356,
        177,
        27,
        260,
        250,
        20,
        395,
        224,
        168,
        163,
        227,
        182,
        192,
        130,
        101,
        44,
        319,
        320,
        159,
        134,
        158,
        315,
        387,
        188,
        284,
        220,
        232,
        333,
        82,
        257,
        203,
        135,
        279,
        12,
        66,
        231,
        308,
        178,
        322,
        32,
        390,
        106,
        378,
        247,
        345,
        281,
        270,
        259,
        117,
        206,
        377,
        303,
        380,
        156,
        397,
        383,
        225,
        3,
        376,
        209,
        207,
        193,
        361,
        137,
        189,
        373,
        36,
        107,
        99,
        213,
        92,
        80,
        139,
        13,
        234,
        254,
        343,
        351,
        324,
        350,
        297,
        195,
        359,
        152,
        330,
        388,
        67,
        2,
        296,
        34,
        40,
        251,
        165,
        325,
        33,
        97,
        38,
        293,
        160,
        313,
        339,
        374,
        392,
        143,
        71,
        294,
        261,
        100,
        230,
        248,
        353,
        125,
        157,
        239,
        360,
        111,
        385,
        39,
        110,
        119,
        78,
        321,
        394,
        314,
        228,
        55,
        124,
        363,
        393,
        197,
        19,
        42,
        186,
        346,
        202,
        18,
        91,
        161,
        128,
        138,
        136,
        236,
        64,
        348,
        226,
        365,
        16,
        249,
        79,
        154,
        205,
        298,
        48,
        340,
        10,
        43,
        282,
        69,
        368,
        132,
        14,
        305
    ],
    "Nb of functions evaluations": 200010,
    "Computational time in seconds": 531.4529492855072,
    "Stopping criterion in evaluations": 200000
}